certificates/rado_a7_c45_N15.cnf
c Rad2 upper bound instance: x1 + 7*x2 - x3 = 45, interval [1,15]
p cnf 15 62
1 5 7 0
-1 -5 -7 0
1 8 12 0
-1 -8 -12 0
2 6 7 0
-2 -6 -7 0
2 8 13 0
-2 -8 -13 0
3 7 0
-3 -7 0
3 8 14 0
-3 -8 -14 0
1 4 6 0
-1 -4 -6 0
4 7 8 0
-4 -7 -8 0
4 8 15 0
-4 -8 -15 0
2 5 6 0
-2 -5 -6 0
5 7 9 0
-5 -7 -9 0
3 6 0
-3 -6 0
6 7 10 0
-6 -7 -10 0
4 6 7 0
-4 -6 -7 0
7 11 0
-7 -11 0
5 6 8 0
-5 -6 -8 0
7 8 12 0
-7 -8 -12 0
6 9 0
-6 -9 0
7 9 13 0
-7 -9 -13 0
7 10 14 0
-7 -10 -14 0
1 5 11 0
-1 -5 -11 0
6 8 11 0
-6 -8 -11 0
7 11 15 0
-7 -11 -15 0
2 5 12 0
-2 -5 -12 0
6 9 12 0
-6 -9 -12 0
3 5 13 0
-3 -5 -13 0
6 10 13 0
-6 -10 -13 0
4 5 14 0
-4 -5 -14 0
6 11 14 0
-6 -11 -14 0
5 15 0
-5 -15 0
6 12 15 0
-6 -12 -15 0
