certificates/rado_a7_c45_N15.drat
6 -14 5 0
-6 -15 0
-15 0
5 0
-6 14 0
6 0
-3 0
-9 0
-2 0
-8 0
14 0
7 0
13 0
4 0
0
